
%    +---------------+
% 10 | | | | | | | | |
% 9  | | | | | | | | |
% 8  | | | | | | | | |
% 7  | | | | | | | | |
% 6  | |1|1| | | | | |
% 5  | |1|1| | | | | |
% 4  | | | | | | | | |
% 3  | | | | | |2|4| |
% 2  | | | | | |3| | |
% 1  | | | | | | | | |
%    +---------------+
n=8;
m=10;
h=2;
%maxT=45;
boxNumber=4;
boxSideLen = [2, 1, 1, 1];
boxStartX  = [2, 6, 6, 7];
boxStartY  = [5, 3, 2, 3];
